# Objective value = 11984.69
I_0_0 4903
I_0_1 6.2859999999999973e+03
I_0_2 5364
I_0_3 7208
I_1_0 114
I_1_1 56.9999999999997
I_1_2 1.1400000000000064e+02
I_1_3 5.7000000000000192e+01
I_2_0 58
I_2_1 2.9000000000000423e+01
I_2_2 5.7999999999997854e+01
I_2_3 2.9000000000000391e+01
I_3_0 33
I_3_1 3.05463987437804e-13
I_3_2 3.2999999999999680e+01
I_3_3 2.9447277949401496e-13
I_4_0 84
I_4_1 0
I_4_2 84
I_4_3 0
I_5_0 156
I_5_1 78
I_5_2 156
I_5_3 78
I_6_0 184
I_6_1 9.1999999999999886e+01
I_6_2 1.8400000000000134e+02
I_6_3 9.1999999999999133e+01
I_7_0 53
I_7_1 0
I_7_2 53
I_7_3 0
I_8_0 22
I_8_1 10.9999999999999
I_8_2 2.2000000000000142e+01
I_8_3 1.1000000000000103e+01
I_9_0 146
I_9_1 7.3000000000000682e+01
I_9_2 1.4599999999999875e+02
I_9_3 73.0000000000007
I_10_0 27
I_10_1 0
I_10_2 27
I_10_3 0
I_11_0 87
I_11_1 -2.1551510576145461e-13
I_11_2 8.7000000000000270e+01
I_11_3 -2.1551510576145461e-13
I_12_0 68
I_12_1 3.4000000000000071e+01
I_12_2 6.7999999999999247e+01
I_12_3 3.4000000000000050e+01
I_13_0 198
I_13_1 9.9000000000002174e+01
I_13_2 198
I_13_3 9.8999999999999631e+01
I_14_0 72
I_14_1 36
I_14_2 72
I_14_3 36
I_15_0 24
I_15_1 12
I_15_2 24
I_15_3 1.2000000000000002e+01
I_16_0 178
I_16_1 8.8999999999999915e+01
I_16_2 1.7799999999999935e+02
I_16_3 8.9000000000000114e+01
I_17_0 24
I_17_1 1.2000000000000261e+01
I_17_2 2.3999999999999496e+01
I_17_3 1.1999999999999455e+01
I_18_0 38
I_18_1 2.9736282880499232e-13
I_18_2 3.7999999999999694e+01
I_18_3 2.9736282880499232e-13
I_19_0 52
I_19_1 0
I_19_2 52
I_19_3 0
I_20_0 57
I_20_1 -5.6558924210747819e-14
I_20_2 5.7000000000000014e+01
I_20_3 -5.6558924210747819e-14
I_21_0 67
I_21_1 0
I_21_2 6.6999999999998948e+01
I_21_3 3.6867037200849495e-13
I_22_0 136
I_22_1 136
I_22_2 68
I_22_3 0
I_23_0 56
I_23_1 -2.5490720645393594e-13
I_23_2 5.6000000000000263e+01
I_23_3 -2.5490720645393594e-13
I_24_0 19
I_24_1 -1.8852974736915940e-14
I_24_2 1.9000000000000004e+01
I_24_3 -1.8852974736915940e-14
I_25_0 128
I_25_1 128
I_25_2 6.4000000000004121e+01
I_25_3 -7.8204109854596027e-13
I_26_0 70
I_26_1 3.4999999999999986e+01
I_26_2 6.9999999999999176e+01
I_26_3 3.5000000000000327e+01
I_27_0 180
I_27_1 1.7999999999999903e+02
I_27_2 9.0000000000000966e+01
I_27_3 9.6633812063373625e-13
I_28_0 82
I_28_1 4.1000000000000085e+01
I_28_2 8.1999999999999886e+01
I_28_3 4.0999999999999893e+01
I_29_0 66
I_29_1 33
I_29_2 6.6000000000000057e+01
I_29_3 3.3000000000000107e+01
I_30_0 130
I_30_1 130
I_30_2 6.5000000000000043e+01
I_30_3 1.4210854715202004e-14
I_31_0 46
I_31_1 2.2999999999999293e+01
I_31_2 46
I_31_3 23
I_32_0 136
I_32_1 136
I_32_2 6.8000000000000114e+01
I_32_3 -1.7053025658242404e-13
I_33_0 118
I_33_1 118
I_33_2 59
I_33_3 4.4575454438700035e-14
I_34_0 56
I_34_1 0
I_34_2 56
I_34_3 0
I_35_0 94
I_35_1 94
I_35_2 47
I_35_3 0
q_1_0 -3.0138391782230656e-13
q_1_1 1.1400000000000094e+02
q_1_2 -4.3998138465894954e-13
q_2_0 4.2338355044080345e-13
q_2_1 5.7999999999997343e+01
q_2_2 2.5365820555123264e-12
q_3_0 3.05463987437804e-13
q_3_1 6.5999999999999375e+01
q_3_2 6.1421701058606e-13
q_4_0 0
q_4_1 168
q_4_2 0
q_5_0 0
q_5_1 156
q_5_2 0
q_6_0 -1.0852430065710905e-13
q_6_1 1.8400000000000134e+02
q_6_2 -2.1747048606357566e-12
q_7_0 0
q_7_1 106
q_7_2 0
q_8_0 -1.0014211682118912e-13
q_8_1 2.2000000000000242e+01
q_8_2 -3.8455350015453860e-14
q_9_0 6.7572336615029371e-13
q_9_1 1.4599999999999793e+02
q_9_2 1.9415580254644738e-12
q_10_0 0
q_10_1 54
q_10_2 0
q_11_0 -2.1551510576145461e-13
q_11_1 1.7400000000000048e+02
q_11_2 -4.8552134535029268e-13
q_12_0 6.9361183463456655e-14
q_12_1 67.9999999999991
q_12_2 8.1024076337143924e-13
q_13_0 2.1796939253526659e-12
q_13_1 1.9799999999999778e+02
q_13_2 -3.5660363550960028e-13
q_14_0 0
q_14_1 72
q_14_2 0
q_15_0 0
q_15_1 24
q_15_2 0
q_16_0 -8.83113027150273e-14
q_16_1 1.7799999999999960e+02
q_16_2 7.6827433304060833e-13
q_17_0 2.6120772211868371e-13
q_17_1 2.3999999999999229e+01
q_17_2 -4.3604009292153023e-14
q_18_0 2.9736282880499232e-13
q_18_1 75.9999999999994
q_18_2 6.0289620518183540e-13
q_19_0 0
q_19_1 104
q_19_2 0
q_20_0 -5.6558924210747819e-14
q_20_1 1.1400000000000007e+02
q_20_2 -7.0769778925949822e-14
q_21_0 0
q_21_1 1.3399999999999895e+02
q_21_2 1.4202736209334432e-12
q_22_0 68
q_22_1 0
q_22_2 0
q_23_0 -2.5490720645393594e-13
q_23_1 1.1200000000000051e+02
q_23_2 -5.17808018685173e-13
q_24_0 -1.8852974736915940e-14
q_24_1 3.8000000000000021e+01
q_24_2 -2.2405688415716440e-14
q_25_0 64
q_25_1 3.3280045386163692e-12
q_25_2 -4.8991921630658908e-12
q_26_0 -1.7364581994527839e-14
q_26_1 6.9999999999999176e+01
q_26_2 1.1509404540532842e-12
q_27_0 8.9999999999999019e+01
q_27_1 1.9895196601282805e-12
q_27_2 0
q_28_0 8.8762330818781265e-14
q_28_1 8.1999999999999815e+01
q_28_2 0
q_29_0 0
q_29_1 6.6000000000000085e+01
q_29_2 5.0154325137441447e-14
q_30_0 65
q_30_1 0
q_30_2 -2.8421709430404007e-14
q_31_0 -7.0732308898868723e-13
q_31_1 46.0000000000007
q_31_2 0
q_32_0 68
q_32_1 1.7053025658242404e-13
q_32_2 -2.8421709430404007e-13
q_33_0 59
q_33_1 0
q_33_2 4.4575454438700035e-14
q_34_0 0
q_34_1 112
q_34_2 0
q_35_0 47
q_35_1 0
q_35_2 0
y_0_0 1
y_0_1 1
y_0_2 0
y_1_0 -5.2874371547773080e-15
y_1_1 1.0000000000000073e+00
y_1_2 -2.4771851236948805e-15
y_2_0 1.4599432773820809e-14
y_2_1 9.9999999999995448e-01
y_2_2 2.9060087669563472e-14
y_3_0 9.2564844678122427e-15
y_3_1 9.9999999999999023e-01
y_3_2 8.9234175604246957e-15
y_4_0 0
y_4_1 1
y_4_2 0
y_5_0 0
y_5_1 1
y_5_2 0
y_6_0 -1.1796119636642288e-15
y_6_1 1.0000000000000073e+00
y_6_2 -7.70911112724093e-15
y_7_0 0
y_7_1 1
y_7_2 0
y_8_0 -9.1038288019262836e-15
y_8_1 1
y_8_2 -1.2490009027033011e-15
y_9_0 9.2564844678122427e-15
y_9_1 9.9999999999998546e-01
y_9_2 9.2564844678122427e-15
y_10_0 0
y_10_1 1
y_10_2 0
y_11_0 -2.4771851236948805e-15
y_11_1 1.0000000000000031e+00
y_11_2 -2.4771851236948805e-15
y_12_0 2.0400348077487251e-15
y_12_1 9.9999999999998890e-01
y_12_2 7.7993167479917247e-15
y_13_0 2.2017110357097636e-14
y_13_1 1
y_13_2 -9.8705765783080324e-16
y_14_0 0
y_14_1 1
y_14_2 0
y_15_0 0
y_15_1 1
y_15_2 0
y_16_0 -9.9226182825873366e-16
y_16_1 0.999999999999998
y_16_2 2.7651492207070305e-15
y_17_0 2.1767310176556975e-14
y_17_1 9.9999999999997891e-01
y_17_2 -1.2490009027033011e-15
y_18_0 7.8253376001313768e-15
y_18_1 0.999999999999992
y_18_2 7.8253376001313768e-15
y_19_0 0
y_19_1 1
y_19_2 0
y_20_0 -9.9226182825873366e-16
y_20_1 1.0000000000000002e+00
y_20_2 -9.9226182825873366e-16
y_21_0 0
y_21_1 9.9999999999998435e-01
y_21_2 5.5025428657984321e-15
y_22_0 1
y_22_1 0
y_22_2 0
y_23_0 -4.5519144009631418e-15
y_23_1 1.0000000000000047e+00
y_23_2 -4.5519144009631418e-15
y_24_0 -9.9226182825873366e-16
y_24_1 1.0000000000000002e+00
y_24_2 -9.9226182825873366e-16
y_25_0 1
y_25_1 2.6000035457940385e-14
y_25_2 -2.5826563110342704e-14
y_26_0 -4.9613091412936683e-16
y_26_1 9.9999999999998868e-01
y_26_2 1.0407473494122854e-14
y_27_0 9.9999999999998912e-01
y_27_1 1.0658141036401503e-14
y_27_2 0
y_28_0 2.1649348980190553e-15
y_28_1 9.9999999999998268e-01
y_28_2 0
y_29_0 0
y_29_1 1
y_29_2 -2.6454533008646308e-17
y_30_0 1
y_30_1 0
y_30_2 1.1102230246251565e-16
y_31_0 -3.0753177782116836e-14
y_31_1 1
y_31_2 0
y_32_0 1
y_32_1 0
y_32_2 -8.8817841970012523e-16
y_33_0 1
y_33_1 0
y_33_2 1.4181364416110398e-16
y_34_0 0
y_34_1 1
y_34_2 0
y_35_0 1
y_35_1 0
y_35_2 0
x_0_1_0 0
x_0_1_1 0
x_0_1_2 0
x_0_2_0 0
x_0_2_1 0
x_0_2_2 0
x_0_3_0 0
x_0_3_1 0
x_0_3_2 0
x_0_4_0 0
x_0_4_1 0
x_0_4_2 0
x_0_5_0 0
x_0_5_1 -1.8318679906315083e-15
x_0_5_2 0
x_0_6_0 0
x_0_6_1 0
x_0_6_2 0
x_0_7_0 0
x_0_7_1 0
x_0_7_2 0
x_0_8_0 0
x_0_8_1 0
x_0_8_2 0
x_0_9_0 0
x_0_9_1 0
x_0_9_2 0
x_0_10_0 0
x_0_10_1 0
x_0_10_2 0
x_0_11_0 0
x_0_11_1 0
x_0_11_2 0
x_0_12_0 0
x_0_12_1 0
x_0_12_2 0
x_0_13_0 0
x_0_13_1 0
x_0_13_2 0
x_0_14_0 0
x_0_14_1 1
x_0_14_2 0
x_0_15_0 0
x_0_15_1 0
x_0_15_2 0
x_0_16_0 0
x_0_16_1 0
x_0_16_2 0
x_0_17_0 0
x_0_17_1 0
x_0_17_2 0
x_0_18_0 0
x_0_18_1 0
x_0_18_2 0
x_0_19_0 0
x_0_19_1 0
x_0_19_2 0
x_0_20_0 0
x_0_20_1 0
x_0_20_2 0
x_0_21_0 0
x_0_21_1 0
x_0_21_2 5.2208237732997986e-14
x_0_22_0 9.9999999999998113e-01
x_0_22_1 0
x_0_22_2 0
x_0_23_0 0
x_0_23_1 0
x_0_23_2 0
x_0_24_0 0
x_0_24_1 0
x_0_24_2 0
x_0_25_0 1.0000000000000193e+00
x_0_25_1 1.4765966227514582e-14
x_0_25_2 -5.2208237732997986e-14
x_0_26_0 0
x_0_26_1 0
x_0_26_2 0
x_0_27_0 0
x_0_27_1 0
x_0_27_2 0
x_0_28_0 0
x_0_28_1 9.9999999999994138e-01
x_0_28_2 0
x_0_29_0 0
x_0_29_1 0
x_0_29_2 0
x_0_30_0 0
x_0_30_1 0
x_0_30_2 0
x_0_31_0 0
x_0_31_1 0
x_0_31_2 0
x_0_32_0 0
x_0_32_1 0
x_0_32_2 0
x_0_33_0 0
x_0_33_1 0
x_0_33_2 0
x_0_34_0 0
x_0_34_1 0
x_0_34_2 0
x_0_35_0 0
x_0_35_1 0
x_0_35_2 0
x_1_2_0 0
x_1_2_1 0
x_1_2_2 0
x_1_3_0 0
x_1_3_1 0
x_1_3_2 0
x_1_4_0 0
x_1_4_1 0
x_1_4_2 0
x_1_5_0 0
x_1_5_1 0
x_1_5_2 0
x_1_6_0 -7.6882944455292090e-15
x_1_6_1 1.0000000000000073e+00
x_1_6_2 -2.4216739724636227e-15
x_1_7_0 0
x_1_7_1 0
x_1_7_2 0
x_1_8_0 0
x_1_8_1 0
x_1_8_2 0
x_1_9_0 0
x_1_9_1 0
x_1_9_2 0
x_1_10_0 0
x_1_10_1 0
x_1_10_2 0
x_1_11_0 -2.4771851236948805e-15
x_1_11_1 1.0000000000000071e+00
x_1_11_2 -2.4771851236948805e-15
x_1_12_0 0
x_1_12_1 0
x_1_12_2 0
x_1_13_0 0
x_1_13_1 0
x_1_13_2 0
x_1_14_0 0
x_1_14_1 0
x_1_14_2 0
x_1_15_0 0
x_1_15_1 0
x_1_15_2 0
x_1_16_0 0
x_1_16_1 0
x_1_16_2 0
x_1_17_0 0
x_1_17_1 0
x_1_17_2 0
x_1_18_0 0
x_1_18_1 0
x_1_18_2 0
x_1_19_0 0
x_1_19_1 0
x_1_19_2 0
x_1_20_0 0
x_1_20_1 0
x_1_20_2 0
x_1_21_0 0
x_1_21_1 0
x_1_21_2 0
x_1_22_0 0
x_1_22_1 0
x_1_22_2 0
x_1_23_0 0
x_1_23_1 0
x_1_23_2 0
x_1_24_0 0
x_1_24_1 0
x_1_24_2 0
x_1_25_0 0
x_1_25_1 0
x_1_25_2 0
x_1_26_0 0
x_1_26_1 0
x_1_26_2 0
x_1_27_0 0
x_1_27_1 0
x_1_27_2 0
x_1_28_0 0
x_1_28_1 0
x_1_28_2 0
x_1_29_0 0
x_1_29_1 0
x_1_29_2 0
x_1_30_0 0
x_1_30_1 0
x_1_30_2 0
x_1_31_0 0
x_1_31_1 0
x_1_31_2 0
x_1_32_0 0
x_1_32_1 0
x_1_32_2 0
x_1_33_0 0
x_1_33_1 0
x_1_33_2 0
x_1_34_0 0
x_1_34_1 0
x_1_34_2 0
x_1_35_0 0
x_1_35_1 0
x_1_35_2 0
x_2_3_0 0
x_2_3_1 0
x_2_3_2 0
x_2_4_0 0
x_2_4_1 0
x_2_4_2 0
x_2_5_0 0
x_2_5_1 6.85649453879833e-16
x_2_5_2 0
x_2_6_0 0
x_2_6_1 0
x_2_6_2 0
x_2_7_0 0
x_2_7_1 0
x_2_7_2 0
x_2_8_0 0
x_2_8_1 0
x_2_8_2 0
x_2_9_0 0
x_2_9_1 0
x_2_9_2 0
x_2_10_0 0
x_2_10_1 0
x_2_10_2 0
x_2_11_0 0
x_2_11_1 0
x_2_11_2 0
x_2_12_0 0
x_2_12_1 0
x_2_12_2 0
x_2_13_0 0
x_2_13_1 9.9999999999995359e-01
x_2_13_2 0
x_2_14_0 0
x_2_14_1 0
x_2_14_2 0
x_2_15_0 0
x_2_15_1 0
x_2_15_2 0
x_2_16_0 0
x_2_16_1 0
x_2_16_2 0
x_2_17_0 0
x_2_17_1 0
x_2_17_2 0
x_2_18_0 0
x_2_18_1 0
x_2_18_2 0
x_2_19_0 0
x_2_19_1 0
x_2_19_2 0
x_2_20_0 0
x_2_20_1 0
x_2_20_2 0
x_2_21_0 0
x_2_21_1 9.9999999999995448e-01
x_2_21_2 5.8120175339126945e-14
x_2_22_0 0
x_2_22_1 0
x_2_22_2 0
x_2_23_0 0
x_2_23_1 0
x_2_23_2 0
x_2_24_0 0
x_2_24_1 0
x_2_24_2 0
x_2_25_0 0
x_2_25_1 0
x_2_25_2 0
x_2_26_0 0
x_2_26_1 0
x_2_26_2 0
x_2_27_0 1.4377388168895777e-14
x_2_27_1 0
x_2_27_2 0
x_2_28_0 0
x_2_28_1 0
x_2_28_2 0
x_2_29_0 0
x_2_29_1 0
x_2_29_2 0
x_2_30_0 0
x_2_30_1 0
x_2_30_2 0
x_2_31_0 0
x_2_31_1 0
x_2_31_2 0
x_2_32_0 0
x_2_32_1 0
x_2_32_2 0
x_2_33_0 1.4599432773820809e-14
x_2_33_1 0
x_2_33_2 0
x_2_34_0 0
x_2_34_1 0
x_2_34_2 0
x_2_35_0 0
x_2_35_1 0
x_2_35_2 0
x_3_4_0 0
x_3_4_1 0
x_3_4_2 0
x_3_5_0 0
x_3_5_1 0
x_3_5_2 0
x_3_6_0 0
x_3_6_1 0
x_3_6_2 0
x_3_7_0 0
x_3_7_1 0
x_3_7_2 0
x_3_8_0 0
x_3_8_1 0
x_3_8_2 0
x_3_9_0 8.9234175604246957e-15
x_3_9_1 9.9999999999998568e-01
x_3_9_2 9.2564844678122427e-15
x_3_10_0 0
x_3_10_1 0
x_3_10_2 0
x_3_11_0 0
x_3_11_1 0
x_3_11_2 0
x_3_12_0 -3.58046925441613e-15
x_3_12_1 2.8220481507190698e-14
x_3_12_2 1.0033640585049852e-14
x_3_13_0 0
x_3_13_1 0
x_3_13_2 0
x_3_14_0 0
x_3_14_1 0
x_3_14_2 0
x_3_15_0 0
x_3_15_1 0
x_3_15_2 0
x_3_16_0 0
x_3_16_1 0
x_3_16_2 0
x_3_17_0 0
x_3_17_1 0
x_3_17_2 0
x_3_18_0 -1.1692036228083680e-15
x_3_18_1 -8.9303564543286029e-15
x_3_18_2 -1.2247147740396258e-15
x_3_19_0 0
x_3_19_1 0
x_3_19_2 0
x_3_20_0 0
x_3_20_1 0
x_3_20_2 0
x_3_21_0 0
x_3_21_1 0
x_3_21_2 0
x_3_22_0 0
x_3_22_1 0
x_3_22_2 0
x_3_23_0 0
x_3_23_1 0
x_3_23_2 0
x_3_24_0 0
x_3_24_1 0
x_3_24_2 0
x_3_25_0 0
x_3_25_1 0
x_3_25_2 0
x_3_26_0 0
x_3_26_1 0
x_3_26_2 0
x_3_27_0 0
x_3_27_1 0
x_3_27_2 0
x_3_28_0 0
x_3_28_1 9.9999999999999756e-01
x_3_28_2 0
x_3_29_0 0
x_3_29_1 0
x_3_29_2 0
x_3_30_0 0
x_3_30_1 0
x_3_30_2 0
x_3_31_0 0
x_3_31_1 0
x_3_31_2 0
x_3_32_0 0
x_3_32_1 0
x_3_32_2 0
x_3_33_0 0
x_3_33_1 0
x_3_33_2 0
x_3_34_0 0
x_3_34_1 0
x_3_34_2 0
x_3_35_0 0
x_3_35_1 0
x_3_35_2 0
x_4_5_0 0
x_4_5_1 0
x_4_5_2 0
x_4_6_0 0
x_4_6_1 0
x_4_6_2 0
x_4_7_0 0
x_4_7_1 0
x_4_7_2 0
x_4_8_0 0
x_4_8_1 0
x_4_8_2 0
x_4_9_0 0
x_4_9_1 0
x_4_9_2 0
x_4_10_0 0
x_4_10_1 0
x_4_10_2 0
x_4_11_0 0
x_4_11_1 -1.2365108936762681e-14
x_4_11_2 0
x_4_12_0 0
x_4_12_1 0
x_4_12_2 0
x_4_13_0 0
x_4_13_1 0
x_4_13_2 0
x_4_14_0 0
x_4_14_1 0
x_4_14_2 0
x_4_15_0 0
x_4_15_1 1.0000000000000118e+00
x_4_15_2 0
x_4_16_0 0
x_4_16_1 0
x_4_16_2 0
x_4_17_0 0
x_4_17_1 0
x_4_17_2 0
x_4_18_0 0
x_4_18_1 0
x_4_18_2 0
x_4_19_0 0
x_4_19_1 1
x_4_19_2 0
x_4_20_0 0
x_4_20_1 0
x_4_20_2 0
x_4_21_0 0
x_4_21_1 0
x_4_21_2 0
x_4_22_0 0
x_4_22_1 0
x_4_22_2 0
x_4_23_0 0
x_4_23_1 0
x_4_23_2 0
x_4_24_0 0
x_4_24_1 0
x_4_24_2 0
x_4_25_0 0
x_4_25_1 0
x_4_25_2 0
x_4_26_0 0
x_4_26_1 0
x_4_26_2 0
x_4_27_0 0
x_4_27_1 0
x_4_27_2 0
x_4_28_0 0
x_4_28_1 0
x_4_28_2 0
x_4_29_0 0
x_4_29_1 0
x_4_29_2 0
x_4_30_0 0
x_4_30_1 0
x_4_30_2 0
x_4_31_0 0
x_4_31_1 0
x_4_31_2 0
x_4_32_0 0
x_4_32_1 0
x_4_32_2 0
x_4_33_0 0
x_4_33_1 0
x_4_33_2 0
x_4_34_0 0
x_4_34_1 0
x_4_34_2 0
x_4_35_0 0
x_4_35_1 0
x_4_35_2 0
x_5_6_0 0
x_5_6_1 0
x_5_6_2 0
x_5_7_0 0
x_5_7_1 1
x_5_7_2 0
x_5_8_0 0
x_5_8_1 0
x_5_8_2 0
x_5_9_0 0
x_5_9_1 0
x_5_9_2 0
x_5_10_0 0
x_5_10_1 0
x_5_10_2 0
x_5_11_0 0
x_5_11_1 0
x_5_11_2 0
x_5_12_0 0
x_5_12_1 0
x_5_12_2 0
x_5_13_0 0
x_5_13_1 0
x_5_13_2 0
x_5_14_0 0
x_5_14_1 0
x_5_14_2 0
x_5_15_0 0
x_5_15_1 0
x_5_15_2 0
x_5_16_0 0
x_5_16_1 0
x_5_16_2 0
x_5_17_0 0
x_5_17_1 0
x_5_17_2 0
x_5_18_0 0
x_5_18_1 0
x_5_18_2 0
x_5_19_0 0
x_5_19_1 0
x_5_19_2 0
x_5_20_0 0
x_5_20_1 0
x_5_20_2 0
x_5_21_0 0
x_5_21_1 1.0000000000000013e+00
x_5_21_2 0
x_5_22_0 0
x_5_22_1 0
x_5_22_2 0
x_5_23_0 0
x_5_23_1 0
x_5_23_2 0
x_5_24_0 0
x_5_24_1 0
x_5_24_2 0
x_5_25_0 0
x_5_25_1 0
x_5_25_2 0
x_5_26_0 0
x_5_26_1 0
x_5_26_2 0
x_5_27_0 0
x_5_27_1 0
x_5_27_2 0
x_5_28_0 0
x_5_28_1 0
x_5_28_2 0
x_5_29_0 0
x_5_29_1 0
x_5_29_2 0
x_5_30_0 0
x_5_30_1 0
x_5_30_2 0
x_5_31_0 0
x_5_31_1 0
x_5_31_2 0
x_5_32_0 0
x_5_32_1 0
x_5_32_2 0
x_5_33_0 0
x_5_33_1 0
x_5_33_2 0
x_5_34_0 0
x_5_34_1 0
x_5_34_2 0
x_5_35_0 0
x_5_35_1 0
x_5_35_2 0
x_6_7_0 0
x_6_7_1 0
x_6_7_2 0
x_6_8_0 0
x_6_8_1 0
x_6_8_2 0
x_6_9_0 0
x_6_9_1 0
x_6_9_2 0
x_6_10_0 0
x_6_10_1 0
x_6_10_2 0
x_6_11_0 0
x_6_11_1 0
x_6_11_2 2.2967738821932926e-15
x_6_12_0 0
x_6_12_1 0
x_6_12_2 0
x_6_13_0 0
x_6_13_1 0
x_6_13_2 0
x_6_14_0 0
x_6_14_1 0
x_6_14_2 0
x_6_15_0 0
x_6_15_1 0
x_6_15_2 0
x_6_16_0 -4.9613091412936683e-16
x_6_16_1 4.6782022700142534e-14
x_6_16_2 -1.1518563880485999e-14
x_6_17_0 0
x_6_17_1 0
x_6_17_2 0
x_6_18_0 0
x_6_18_1 0
x_6_18_2 0
x_6_19_0 0
x_6_19_1 0
x_6_19_2 0
x_6_20_0 0
x_6_20_1 0
x_6_20_2 0
x_6_21_0 0
x_6_21_1 0
x_6_21_2 0
x_6_22_0 0
x_6_22_1 0
x_6_22_2 0
x_6_23_0 0
x_6_23_1 0
x_6_23_2 0
x_6_24_0 3.2265856653168612e-16
x_6_24_1 9.9999999999996059e-01
x_6_24_2 0
x_6_25_0 0
x_6_25_1 0
x_6_25_2 0
x_6_26_0 0
x_6_26_1 0
x_6_26_2 0
x_6_27_0 0
x_6_27_1 0
x_6_27_2 0
x_6_28_0 0
x_6_28_1 0
x_6_28_2 0
x_6_29_0 0
x_6_29_1 0
x_6_29_2 0
x_6_30_0 0
x_6_30_1 0
x_6_30_2 0
x_6_31_0 0
x_6_31_1 0
x_6_31_2 0
x_6_32_0 0
x_6_32_1 0
x_6_32_2 0
x_6_33_0 0
x_6_33_1 0
x_6_33_2 0
x_6_34_0 0
x_6_34_1 0
x_6_34_2 0
x_6_35_0 0
x_6_35_1 0
x_6_35_2 0
x_7_8_0 0
x_7_8_1 0
x_7_8_2 0
x_7_9_0 0
x_7_9_1 0
x_7_9_2 0
x_7_10_0 0
x_7_10_1 0
x_7_10_2 0
x_7_11_0 0
x_7_11_1 0
x_7_11_2 0
x_7_12_0 0
x_7_12_1 0
x_7_12_2 0
x_7_13_0 0
x_7_13_1 0
x_7_13_2 0
x_7_14_0 0
x_7_14_1 1
x_7_14_2 0
x_7_15_0 0
x_7_15_1 0
x_7_15_2 0
x_7_16_0 0
x_7_16_1 0
x_7_16_2 0
x_7_17_0 0
x_7_17_1 0
x_7_17_2 0
x_7_18_0 0
x_7_18_1 0
x_7_18_2 0
x_7_19_0 0
x_7_19_1 0
x_7_19_2 0
x_7_20_0 0
x_7_20_1 0
x_7_20_2 0
x_7_21_0 0
x_7_21_1 0
x_7_21_2 0
x_7_22_0 0
x_7_22_1 0
x_7_22_2 0
x_7_23_0 0
x_7_23_1 0
x_7_23_2 0
x_7_24_0 0
x_7_24_1 0
x_7_24_2 0
x_7_25_0 0
x_7_25_1 0
x_7_25_2 0
x_7_26_0 0
x_7_26_1 0
x_7_26_2 0
x_7_27_0 0
x_7_27_1 0
x_7_27_2 0
x_7_28_0 0
x_7_28_1 0
x_7_28_2 0
x_7_29_0 0
x_7_29_1 0
x_7_29_2 0
x_7_30_0 0
x_7_30_1 0
x_7_30_2 0
x_7_31_0 0
x_7_31_1 0
x_7_31_2 0
x_7_32_0 0
x_7_32_1 0
x_7_32_2 0
x_7_33_0 0
x_7_33_1 0
x_7_33_2 0
x_7_34_0 0
x_7_34_1 0
x_7_34_2 0
x_7_35_0 0
x_7_35_1 0
x_7_35_2 0
x_8_9_0 0
x_8_9_1 0
x_8_9_2 0
x_8_10_0 0
x_8_10_1 1
x_8_10_2 -1.2490009027033011e-15
x_8_11_0 0
x_8_11_1 0
x_8_11_2 0
x_8_12_0 0
x_8_12_1 0
x_8_12_2 0
x_8_13_0 -1.6819878823071122e-14
x_8_13_1 0
x_8_13_2 0
x_8_14_0 0
x_8_14_1 0
x_8_14_2 0
x_8_15_0 0
x_8_15_1 0.99999999999997
x_8_15_2 0
x_8_16_0 0
x_8_16_1 0
x_8_16_2 0
x_8_17_0 0
x_8_17_1 3.0136483586407081e-14
x_8_17_2 -1.8041124150158794e-15
x_8_18_0 0
x_8_18_1 0
x_8_18_2 0
x_8_19_0 0
x_8_19_1 0
x_8_19_2 0
x_8_20_0 0
x_8_20_1 0
x_8_20_2 0
x_8_21_0 0
x_8_21_1 0
x_8_21_2 0
x_8_22_0 0
x_8_22_1 0
x_8_22_2 0
x_8_23_0 0
x_8_23_1 0
x_8_23_2 0
x_8_24_0 0
x_8_24_1 0
x_8_24_2 0
x_8_25_0 0
x_8_25_1 0
x_8_25_2 0
x_8_26_0 0
x_8_26_1 0
x_8_26_2 0
x_8_27_0 -2.7200464103316335e-15
x_8_27_1 0
x_8_27_2 5.5511151231257827e-17
x_8_28_0 0
x_8_28_1 0
x_8_28_2 0
x_8_29_0 0
x_8_29_1 0
x_8_29_2 0
x_8_30_0 0
x_8_30_1 0
x_8_30_2 0
x_8_31_0 0
x_8_31_1 0
x_8_31_2 0
x_8_32_0 0
x_8_32_1 0
x_8_32_2 0
x_8_33_0 0
x_8_33_1 0
x_8_33_2 0
x_8_34_0 0
x_8_34_1 0
x_8_34_2 0
x_8_35_0 0
x_8_35_1 0
x_8_35_2 0
x_9_10_0 0
x_9_10_1 0
x_9_10_2 0
x_9_11_0 0
x_9_11_1 0
x_9_11_2 0
x_9_12_0 0
x_9_12_1 -1.4169221351778560e-14
x_9_12_2 0
x_9_13_0 0
x_9_13_1 0
x_9_13_2 0
x_9_14_0 0
x_9_14_1 0
x_9_14_2 0
x_9_15_0 0
x_9_15_1 0
x_9_15_2 0
x_9_16_0 0
x_9_16_1 0
x_9_16_2 0
x_9_17_0 0
x_9_17_1 0
x_9_17_2 0
x_9_18_0 8.9234175604246957e-15
x_9_18_1 1
x_9_18_2 9.2564844678122427e-15
x_9_19_0 0
x_9_19_1 0
x_9_19_2 0
x_9_20_0 0
x_9_20_1 0
x_9_20_2 0
x_9_21_0 0
x_9_21_1 0
x_9_21_2 0
x_9_22_0 0
x_9_22_1 0
x_9_22_2 0
x_9_23_0 0
x_9_23_1 0
x_9_23_2 0
x_9_24_0 0
x_9_24_1 0
x_9_24_2 0
x_9_25_0 0
x_9_25_1 0
x_9_25_2 0
x_9_26_0 0
x_9_26_1 0
x_9_26_2 0
x_9_27_0 0
x_9_27_1 0
x_9_27_2 0
x_9_28_0 0
x_9_28_1 7.8062556418956319e-16
x_9_28_2 0
x_9_29_0 0
x_9_29_1 0
x_9_29_2 0
x_9_30_0 0
x_9_30_1 0
x_9_30_2 0
x_9_31_0 0
x_9_31_1 0
x_9_31_2 0
x_9_32_0 0
x_9_32_1 0
x_9_32_2 0
x_9_33_0 0
x_9_33_1 0
x_9_33_2 0
x_9_34_0 0
x_9_34_1 0
x_9_34_2 0
x_9_35_0 0
x_9_35_1 0
x_9_35_2 0
x_10_11_0 0
x_10_11_1 0
x_10_11_2 0
x_10_12_0 0
x_10_12_1 0
x_10_12_2 0
x_10_13_0 0
x_10_13_1 4.7087334031914452e-14
x_10_13_2 0
x_10_14_0 0
x_10_14_1 0
x_10_14_2 0
x_10_15_0 0
x_10_15_1 3.0136483586407081e-14
x_10_15_2 0
x_10_16_0 0
x_10_16_1 0
x_10_16_2 0
x_10_17_0 0
x_10_17_1 9.9999999999990052e-01
x_10_17_2 -2.6107588313450947e-16
x_10_18_0 0
x_10_18_1 0
x_10_18_2 0
x_10_19_0 0
x_10_19_1 8.3544282603043030e-15
x_10_19_2 0
x_10_20_0 0
x_10_20_1 0
x_10_20_2 0
x_10_21_0 0
x_10_21_1 0
x_10_21_2 0
x_10_22_0 0
x_10_22_1 0
x_10_22_2 0
x_10_23_0 0
x_10_23_1 0
x_10_23_2 0
x_10_24_0 0
x_10_24_1 0
x_10_24_2 0
x_10_25_0 0
x_10_25_1 0
x_10_25_2 0
x_10_26_0 0
x_10_26_1 0
x_10_26_2 0
x_10_27_0 0
x_10_27_1 0
x_10_27_2 0
x_10_28_0 0
x_10_28_1 0
x_10_28_2 0
x_10_29_0 0
x_10_29_1 0
x_10_29_2 0
x_10_30_0 0
x_10_30_1 0
x_10_30_2 0
x_10_31_0 0
x_10_31_1 0
x_10_31_2 0
x_10_32_0 0
x_10_32_1 0
x_10_32_2 0
x_10_33_0 0
x_10_33_1 0
x_10_33_2 0
x_10_34_0 0
x_10_34_1 0
x_10_34_2 0
x_10_35_0 0
x_10_35_1 0
x_10_35_2 0
x_11_12_0 0
x_11_12_1 0
x_11_12_2 0
x_11_13_0 0
x_11_13_1 0
x_11_13_2 0
x_11_14_0 0
x_11_14_1 0
x_11_14_2 0
x_11_15_0 0
x_11_15_1 0
x_11_15_2 0
x_11_16_0 0
x_11_16_1 0
x_11_16_2 0
x_11_17_0 0
x_11_17_1 0
x_11_17_2 0
x_11_18_0 0
x_11_18_1 0
x_11_18_2 0
x_11_19_0 0
x_11_19_1 0
x_11_19_2 0
x_11_20_0 0
x_11_20_1 0
x_11_20_2 0
x_11_21_0 0
x_11_21_1 0
x_11_21_2 0
x_11_22_0 0
x_11_22_1 0
x_11_22_2 0
x_11_23_0 -2.9212743335449431e-15
x_11_23_1 1.0000000000000080e+00
x_11_23_2 -4.4131365228849972e-15
x_11_24_0 0
x_11_24_1 0
x_11_24_2 0
x_11_25_0 0
x_11_25_1 0
x_11_25_2 0
x_11_26_0 0
x_11_26_1 0
x_11_26_2 0
x_11_27_0 0
x_11_27_1 0
x_11_27_2 0
x_11_28_0 0
x_11_28_1 0
x_11_28_2 0
x_11_29_0 0
x_11_29_1 0
x_11_29_2 0
x_11_30_0 0
x_11_30_1 0
x_11_30_2 0
x_11_31_0 0
x_11_31_1 0
x_11_31_2 0
x_11_32_0 0
x_11_32_1 0
x_11_32_2 0
x_11_33_0 0
x_11_33_1 0
x_11_33_2 0
x_11_34_0 0
x_11_34_1 0
x_11_34_2 0
x_11_35_0 0
x_11_35_1 0
x_11_35_2 0
x_12_13_0 0
x_12_13_1 0
x_12_13_2 0
x_12_14_0 0
x_12_14_1 0
x_12_14_2 0
x_12_15_0 0
x_12_15_1 0
x_12_15_2 0
x_12_16_0 0
x_12_16_1 0
x_12_16_2 0
x_12_17_0 0
x_12_17_1 0
x_12_17_2 0
x_12_18_0 7.8270723236073536e-15
x_12_18_1 0.99999999999997
x_12_18_2 7.7993167479917247e-15
x_12_19_0 0
x_12_19_1 0
x_12_19_2 0
x_12_20_0 0
x_12_20_1 9.9999999999998890e-01
x_12_20_2 -2.3661628212323649e-15
x_12_21_0 0
x_12_21_1 0
x_12_21_2 0
x_12_22_0 0
x_12_22_1 0
x_12_22_2 0
x_12_23_0 0
x_12_23_1 0
x_12_23_2 0
x_12_24_0 0
x_12_24_1 0
x_12_24_2 0
x_12_25_0 0
x_12_25_1 0
x_12_25_2 0
x_12_26_0 0
x_12_26_1 0
x_12_26_2 0
x_12_27_0 0
x_12_27_1 0
x_12_27_2 0
x_12_28_0 0
x_12_28_1 0
x_12_28_2 0
x_12_29_0 0
x_12_29_1 0
x_12_29_2 0
x_12_30_0 0
x_12_30_1 0
x_12_30_2 0
x_12_31_0 0
x_12_31_1 0
x_12_31_2 0
x_12_32_0 0
x_12_32_1 0
x_12_32_2 0
x_12_33_0 0
x_12_33_1 0
x_12_33_2 0
x_12_34_0 0
x_12_34_1 0
x_12_34_2 0
x_12_35_0 0
x_12_35_1 0
x_12_35_2 0
x_13_14_0 0
x_13_14_1 0
x_13_14_2 0
x_13_15_0 0
x_13_15_1 0
x_13_15_2 0
x_13_16_0 0
x_13_16_1 0
x_13_16_2 0
x_13_17_0 6.5253358272343576e-14
x_13_17_1 1
x_13_17_2 -1.9741153156616065e-15
x_13_18_0 0
x_13_18_1 0
x_13_18_2 0
x_13_19_0 0
x_13_19_1 0
x_13_19_2 0
x_13_20_0 0
x_13_20_1 0
x_13_20_2 0
x_13_21_0 0
x_13_21_1 0
x_13_21_2 0
x_13_22_0 0
x_13_22_1 0
x_13_22_2 0
x_13_23_0 0
x_13_23_1 0
x_13_23_2 0
x_13_24_0 0
x_13_24_1 0
x_13_24_2 0
x_13_25_0 0
x_13_25_1 0
x_13_25_2 0
x_13_26_0 0
x_13_26_1 0
x_13_26_2 0
x_13_27_0 -4.4408920985006262e-15
x_13_27_1 0
x_13_27_2 0
x_13_28_0 0
x_13_28_1 0
x_13_28_2 0
x_13_29_0 0
x_13_29_1 0
x_13_29_2 0
x_13_30_0 0
x_13_30_1 0
x_13_30_2 0
x_13_31_0 0
x_13_31_1 0
x_13_31_2 0
x_13_32_0 0
x_13_32_1 0
x_13_32_2 0
x_13_33_0 0
x_13_33_1 0
x_13_33_2 0
x_13_34_0 0
x_13_34_1 0
x_13_34_2 0
x_13_35_0 0
x_13_35_1 0
x_13_35_2 0
x_14_15_0 0
x_14_15_1 0
x_14_15_2 0
x_14_16_0 0
x_14_16_1 0
x_14_16_2 0
x_14_17_0 0
x_14_17_1 0
x_14_17_2 0
x_14_18_0 0
x_14_18_1 0
x_14_18_2 0
x_14_19_0 0
x_14_19_1 0
x_14_19_2 0
x_14_20_0 0
x_14_20_1 0
x_14_20_2 0
x_14_21_0 0
x_14_21_1 0
x_14_21_2 0
x_14_22_0 0
x_14_22_1 0
x_14_22_2 0
x_14_23_0 0
x_14_23_1 0
x_14_23_2 0
x_14_24_0 0
x_14_24_1 0
x_14_24_2 0
x_14_25_0 0
x_14_25_1 0
x_14_25_2 0
x_14_26_0 0
x_14_26_1 0
x_14_26_2 0
x_14_27_0 0
x_14_27_1 0
x_14_27_2 0
x_14_28_0 0
x_14_28_1 0
x_14_28_2 0
x_14_29_0 0
x_14_29_1 0
x_14_29_2 0
x_14_30_0 0
x_14_30_1 0
x_14_30_2 0
x_14_31_0 0
x_14_31_1 0
x_14_31_2 0
x_14_32_0 0
x_14_32_1 0
x_14_32_2 0
x_14_33_0 0
x_14_33_1 0
x_14_33_2 0
x_14_34_0 0
x_14_34_1 0
x_14_34_2 0
x_14_35_0 0
x_14_35_1 0
x_14_35_2 0
x_15_16_0 0
x_15_16_1 0
x_15_16_2 0
x_15_17_0 0
x_15_17_1 2.6645352591003757e-15
x_15_17_2 0
x_15_18_0 0
x_15_18_1 0
x_15_18_2 0
x_15_19_0 0
x_15_19_1 -1.1851630787873546e-14
x_15_19_2 0
x_15_20_0 0
x_15_20_1 0
x_15_20_2 0
x_15_21_0 0
x_15_21_1 0
x_15_21_2 0
x_15_22_0 0
x_15_22_1 0
x_15_22_2 0
x_15_23_0 0
x_15_23_1 0
x_15_23_2 0
x_15_24_0 0
x_15_24_1 0
x_15_24_2 0
x_15_25_0 0
x_15_25_1 0
x_15_25_2 0
x_15_26_0 0
x_15_26_1 0
x_15_26_2 0
x_15_27_0 0
x_15_27_1 0
x_15_27_2 0
x_15_28_0 0
x_15_28_1 0
x_15_28_2 0
x_15_29_0 0
x_15_29_1 0
x_15_29_2 0
x_15_30_0 0
x_15_30_1 0
x_15_30_2 0
x_15_31_0 0
x_15_31_1 0
x_15_31_2 0
x_15_32_0 0
x_15_32_1 0
x_15_32_2 0
x_15_33_0 0
x_15_33_1 0
x_15_33_2 0
x_15_34_0 0
x_15_34_1 0
x_15_34_2 0
x_15_35_0 0
x_15_35_1 0
x_15_35_2 0
x_16_17_0 0
x_16_17_1 0
x_16_17_2 0
x_16_18_0 0
x_16_18_1 0
x_16_18_2 0
x_16_19_0 0
x_16_19_1 0
x_16_19_2 0
x_16_20_0 -1.9845236565174673e-15
x_16_20_1 0.999999999999998
x_16_20_2 -9.9226182825873366e-16
x_16_21_0 0
x_16_21_1 0
x_16_21_2 0
x_16_22_0 0
x_16_22_1 0
x_16_22_2 0
x_16_23_0 0
x_16_23_1 0
x_16_23_2 0
x_16_24_0 0
x_16_24_1 0
x_16_24_2 0
x_16_25_0 0
x_16_25_1 0
x_16_25_2 0
x_16_26_0 4.9613091412936683e-16
x_16_26_1 0.999999999999948
x_16_26_2 1.4793721803130211e-14
x_16_27_0 0
x_16_27_1 0
x_16_27_2 0
x_16_28_0 0
x_16_28_1 0
x_16_28_2 0
x_16_29_0 0
x_16_29_1 0
x_16_29_2 0
x_16_30_0 0
x_16_30_1 0
x_16_30_2 0
x_16_31_0 0
x_16_31_1 0
x_16_31_2 0
x_16_32_0 0
x_16_32_1 0
x_16_32_2 0
x_16_33_0 0
x_16_33_1 0
x_16_33_2 0
x_16_34_0 0
x_16_34_1 0
x_16_34_2 0
x_16_35_0 0
x_16_35_1 0
x_16_35_2 0
x_17_18_0 0
x_17_18_1 0
x_17_18_2 0
x_17_19_0 0
x_17_19_1 0
x_17_19_2 0
x_17_20_0 0
x_17_20_1 0
x_17_20_2 0
x_17_21_0 0
x_17_21_1 -8.8817841970012523e-15
x_17_21_2 0
x_17_22_0 0
x_17_22_1 0
x_17_22_2 0
x_17_23_0 0
x_17_23_1 0
x_17_23_2 0
x_17_24_0 0
x_17_24_1 0
x_17_24_2 0
x_17_25_0 0
x_17_25_1 0
x_17_25_2 0
x_17_26_0 0
x_17_26_1 0
x_17_26_2 0
x_17_27_0 -1.6264767310758543e-14
x_17_27_1 0
x_17_27_2 -2.8362728832220796e-16
x_17_28_0 0
x_17_28_1 0
x_17_28_2 0
x_17_29_0 0
x_17_29_1 0
x_17_29_2 0
x_17_30_0 0
x_17_30_1 0
x_17_30_2 0
x_17_31_0 0
x_17_31_1 0
x_17_31_2 0
x_17_32_0 0
x_17_32_1 0
x_17_32_2 0
x_17_33_0 -4.8294701571194310e-15
x_17_33_1 0
x_17_33_2 0
x_17_34_0 0
x_17_34_1 0
x_17_34_2 0
x_17_35_0 0
x_17_35_1 0
x_17_35_2 0
x_18_19_0 0
x_18_19_1 0
x_18_19_2 0
x_18_20_0 0
x_18_20_1 0
x_18_20_2 0
x_18_21_0 0
x_18_21_1 0
x_18_21_2 0
x_18_22_0 0
x_18_22_1 0
x_18_22_2 0
x_18_23_0 0
x_18_23_1 0
x_18_23_2 0
x_18_24_0 0
x_18_24_1 0
x_18_24_2 0
x_18_25_0 0
x_18_25_1 0
x_18_25_2 0
x_18_26_0 0
x_18_26_1 3.2196467714129540e-15
x_18_26_2 0
x_18_27_0 0
x_18_27_1 0
x_18_27_2 0
x_18_28_0 0
x_18_28_1 0
x_18_28_2 0
x_18_29_0 0
x_18_29_1 0
x_18_29_2 0
x_18_30_0 0
x_18_30_1 0
x_18_30_2 0
x_18_31_0 0
x_18_31_1 0
x_18_31_2 0
x_18_32_0 0
x_18_32_1 0
x_18_32_2 0
x_18_33_0 0
x_18_33_1 0
x_18_33_2 0
x_18_34_0 0
x_18_34_1 0
x_18_34_2 0
x_18_35_0 0
x_18_35_1 0
x_18_35_2 0
x_19_20_0 0
x_19_20_1 0
x_19_20_2 0
x_19_21_0 0
x_19_21_1 0
x_19_21_2 0
x_19_22_0 0
x_19_22_1 0
x_19_22_2 0
x_19_23_0 0
x_19_23_1 0
x_19_23_2 0
x_19_24_0 0
x_19_24_1 0
x_19_24_2 0
x_19_25_0 0
x_19_25_1 0
x_19_25_2 0
x_19_26_0 0
x_19_26_1 0
x_19_26_2 0
x_19_27_0 0
x_19_27_1 0
x_19_27_2 0
x_19_28_0 0
x_19_28_1 0
x_19_28_2 0
x_19_29_0 0
x_19_29_1 1
x_19_29_2 0
x_19_30_0 0
x_19_30_1 0
x_19_30_2 0
x_19_31_0 0
x_19_31_1 3.1988300897012323e-15
x_19_31_2 0
x_19_32_0 0
x_19_32_1 0
x_19_32_2 0
x_19_33_0 0
x_19_33_1 0
x_19_33_2 0
x_19_34_0 0
x_19_34_1 0
x_19_34_2 0
x_19_35_0 0
x_19_35_1 0
x_19_35_2 0
x_20_21_0 0
x_20_21_1 0
x_20_21_2 0
x_20_22_0 0
x_20_22_1 0
x_20_22_2 0
x_20_23_0 0
x_20_23_1 0
x_20_23_2 0
x_20_24_0 0
x_20_24_1 0
x_20_24_2 0
x_20_25_0 0
x_20_25_1 0
x_20_25_2 0
x_20_26_0 0
x_20_26_1 1.1157741397482823e-14
x_20_26_2 0
x_20_27_0 0
x_20_27_1 0
x_20_27_2 0
x_20_28_0 0
x_20_28_1 0
x_20_28_2 0
x_20_29_0 0
x_20_29_1 0
x_20_29_2 0
x_20_30_0 0
x_20_30_1 0
x_20_30_2 0
x_20_31_0 0
x_20_31_1 0
x_20_31_2 0
x_20_32_0 0
x_20_32_1 0
x_20_32_2 0
x_20_33_0 0
x_20_33_1 0
x_20_33_2 0
x_20_34_0 0
x_20_34_1 0
x_20_34_2 0
x_20_35_0 0
x_20_35_1 0
x_20_35_2 0
x_21_22_0 0
x_21_22_1 0
x_21_22_2 0
x_21_23_0 0
x_21_23_1 0
x_21_23_2 0
x_21_24_0 0
x_21_24_1 0
x_21_24_2 0
x_21_25_0 0
x_21_25_1 0
x_21_25_2 0
x_21_26_0 0
x_21_26_1 0
x_21_26_2 0
x_21_27_0 0
x_21_27_1 2.6714741530042829e-15
x_21_27_2 0
x_21_28_0 0
x_21_28_1 0
x_21_28_2 0
x_21_29_0 0
x_21_29_1 0
x_21_29_2 0
x_21_30_0 0
x_21_30_1 0
x_21_30_2 0
x_21_31_0 0
x_21_31_1 0
x_21_31_2 0
x_21_32_0 0
x_21_32_1 0
x_21_32_2 0
x_21_33_0 0
x_21_33_1 0
x_21_33_2 0
x_21_34_0 0
x_21_34_1 1.6616916176381835e-14
x_21_34_2 0
x_21_35_0 0
x_21_35_1 0
x_21_35_2 0
x_22_23_0 0
x_22_23_1 0
x_22_23_2 0
x_22_24_0 0
x_22_24_1 0
x_22_24_2 0
x_22_25_0 -2.0206059048177849e-14
x_22_25_1 0
x_22_25_2 0
x_22_26_0 0
x_22_26_1 0
x_22_26_2 0
x_22_27_0 0
x_22_27_1 0
x_22_27_2 0
x_22_28_0 0
x_22_28_1 0
x_22_28_2 0
x_22_29_0 0
x_22_29_1 0
x_22_29_2 0
x_22_30_0 1.0000000000000391e+00
x_22_30_1 0
x_22_30_2 0
x_22_31_0 0
x_22_31_1 0
x_22_31_2 0
x_22_32_0 0
x_22_32_1 0
x_22_32_2 0
x_22_33_0 0
x_22_33_1 0
x_22_33_2 0
x_22_34_0 0
x_22_34_1 0
x_22_34_2 0
x_22_35_0 0
x_22_35_1 0
x_22_35_2 0
x_23_24_0 -9.3675067702747583e-16
x_23_24_1 5.2097215430535471e-14
x_23_24_2 -4.5657921887709563e-15
x_23_25_0 0
x_23_25_1 0
x_23_25_2 0
x_23_26_0 0
x_23_26_1 0
x_23_26_2 0
x_23_27_0 0
x_23_27_1 0
x_23_27_2 0
x_23_28_0 0
x_23_28_1 0
x_23_28_2 0
x_23_29_0 -5.6482596377804839e-15
x_23_29_1 2.9004576518332215e-15
x_23_29_2 2.8362728832220796e-16
x_23_30_0 0
x_23_30_1 0
x_23_30_2 0
x_23_31_0 0
x_23_31_1 0
x_23_31_2 0
x_23_32_0 0
x_23_32_1 0
x_23_32_2 0
x_23_33_0 0
x_23_33_1 0
x_23_33_2 0
x_23_34_0 0
x_23_34_1 9.9999999999995093e-01
x_23_34_2 0
x_23_35_0 0
x_23_35_1 0
x_23_35_2 0
x_24_25_0 0
x_24_25_1 0
x_24_25_2 0
x_24_26_0 -1.1796119636642288e-15
x_24_26_1 0.999999999999989
x_24_26_2 -1.7416623698807143e-15
x_24_27_0 0
x_24_27_1 0
x_24_27_2 0
x_24_28_0 0
x_24_28_1 0
x_24_28_2 0
x_24_29_0 0
x_24_29_1 0
x_24_29_2 0
x_24_30_0 0
x_24_30_1 0
x_24_30_2 0
x_24_31_0 0
x_24_31_1 0
x_24_31_2 0
x_24_32_0 0
x_24_32_1 0
x_24_32_2 0
x_24_33_0 0
x_24_33_1 0
x_24_33_2 0
x_24_34_0 0
x_24_34_1 0
x_24_34_2 0
x_24_35_0 0
x_24_35_1 0
x_24_35_2 0
x_25_26_0 0
x_25_26_1 0
x_25_26_2 0
x_25_27_0 1.0000000000000506e+00
x_25_27_1 0
x_25_27_2 0
x_25_28_0 0
x_25_28_1 0
x_25_28_2 0
x_25_29_0 0
x_25_29_1 0
x_25_29_2 0
x_25_30_0 -6.17284001691587e-14
x_25_30_1 0
x_25_30_2 0
x_25_31_0 0
x_25_31_1 0
x_25_31_2 0
x_25_32_0 0
x_25_32_1 0
x_25_32_2 0
x_25_33_0 0
x_25_33_1 0
x_25_33_2 0
x_25_34_0 0
x_25_34_1 0
x_25_34_2 0
x_25_35_0 0
x_25_35_1 0
x_25_35_2 0
x_26_27_0 0
x_26_27_1 0
x_26_27_2 0
x_26_28_0 0
x_26_28_1 0
x_26_28_2 0
x_26_29_0 0
x_26_29_1 0
x_26_29_2 0
x_26_30_0 0
x_26_30_1 0
x_26_30_2 0
x_26_31_0 0
x_26_31_1 0
x_26_31_2 0
x_26_32_0 0
x_26_32_1 0
x_26_32_2 0
x_26_33_0 0
x_26_33_1 0
x_26_33_2 0
x_26_34_0 0
x_26_34_1 0
x_26_34_2 0
x_26_35_0 0
x_26_35_1 0
x_26_35_2 0
x_27_28_0 0
x_27_28_1 0
x_27_28_2 0
x_27_29_0 0
x_27_29_1 0
x_27_29_2 0
x_27_30_0 -2.1316282072803006e-14
x_27_30_1 0
x_27_30_2 0
x_27_31_0 0
x_27_31_1 0
x_27_31_2 0
x_27_32_0 -2.8588242884097781e-14
x_27_32_1 0
x_27_32_2 0
x_27_33_0 1.0000000000000138e+00
x_27_33_1 0
x_27_33_2 -1.1275702593849246e-17
x_27_34_0 0
x_27_34_1 1.3697376566312869e-14
x_27_34_2 0
x_27_35_0 0
x_27_35_1 0
x_27_35_2 0
x_28_29_0 0
x_28_29_1 0
x_28_29_2 0
x_28_30_0 0
x_28_30_1 0
x_28_30_2 0
x_28_31_0 0
x_28_31_1 0
x_28_31_2 0
x_28_32_0 0
x_28_32_1 0
x_28_32_2 0
x_28_33_0 0
x_28_33_1 0
x_28_33_2 0
x_28_34_0 0
x_28_34_1 1.9997892231060632e-14
x_28_34_2 0
x_28_35_0 0
x_28_35_1 0
x_28_35_2 0
x_29_30_0 0
x_29_30_1 0
x_29_30_2 0
x_29_31_0 3.8580250105724190e-15
x_29_31_1 9.9999999999999623e-01
x_29_31_2 0
x_29_32_0 0
x_29_32_1 0
x_29_32_2 0
x_29_33_0 0
x_29_33_1 0
x_29_33_2 0
x_29_34_0 0
x_29_34_1 0
x_29_34_2 0
x_29_35_0 0
x_29_35_1 0
x_29_35_2 0
x_30_31_0 0
x_30_31_1 0
x_30_31_2 0
x_30_32_0 1.0000000000000313e+00
x_30_32_1 0
x_30_32_2 -1.7763568394002505e-15
x_30_33_0 0
x_30_33_1 0
x_30_33_2 0
x_30_34_0 0
x_30_34_1 0
x_30_34_2 0
x_30_35_0 0
x_30_35_1 0
x_30_35_2 0
x_31_32_0 0
x_31_32_1 0
x_31_32_2 0
x_31_33_0 -5.6676885407114241e-14
x_31_33_1 0
x_31_33_2 0
x_31_34_0 0
x_31_34_1 1
x_31_34_2 0
x_31_35_0 -8.1601392309949e-15
x_31_35_1 0
x_31_35_2 0
x_32_33_0 0
x_32_33_1 0
x_32_33_2 0
x_32_34_0 0
x_32_34_1 0
x_32_34_2 0
x_32_35_0 1
x_32_35_1 0
x_32_35_2 0
x_33_34_0 0
x_33_34_1 0
x_33_34_2 0
x_33_35_0 1.0000000000000062e+00
x_33_35_1 0
x_33_35_2 0
x_34_35_0 0
x_34_35_1 0
x_34_35_2 0
